(set-logic ALL)
(declare-fun var0 () String)
(assert (str.in_re var0 (re.++ (re.+ (re.+ (str.to_re "0"))) (re.++ (re.+ (re.+ (str.to_re "11"))) (re.++ (re.+ (re.union (str.to_re "222") (str.to_re "333"))) (re.++ (re.union (re.union (str.to_re "4") (str.to_re "5")) (re.union (str.to_re "666") (str.to_re "777"))) (re.++ (re.union (re.union (str.to_re "88") (str.to_re "9")) (re.union (str.to_re "aa") (str.to_re "bb"))) (re.++ (re.union (re.* (str.to_re "cc")) (re.* (str.to_re "d"))) (re.++ (re.union (re.union (str.to_re "ee") (str.to_re "f")) (re.union (str.to_re "ggg") (str.to_re "hh"))) (re.++ (re.union (re.+ (str.to_re "iii")) (re.+ (str.to_re "jj"))) (re.++ (re.+ (re.+ (str.to_re "k"))) (re.++ (re.+ (re.* (str.to_re "lll"))) (re.++ (re.union (re.* (str.to_re "m")) (re.* (str.to_re "nn"))) (re.++ (re.* (re.* (str.to_re "o"))) (re.++ (re.+ (re.+ (str.to_re "p"))) (re.++ (re.+ (re.+ (str.to_re "qqq"))) (re.++ (re.* (re.union (str.to_re "rrr") (str.to_re "sss"))) (re.++ (re.+ (re.* (str.to_re "ttt"))) (re.++ (re.* (re.union (str.to_re "uu") (str.to_re "vv"))) (re.++ (re.* (re.+ (str.to_re "www"))) (re.++ (re.union (re.+ (str.to_re "x")) (re.+ (str.to_re "yy"))) (re.++ (re.* (re.+ (str.to_re "zzz"))) (re.++ (re.union (re.union (str.to_re "AAA") (str.to_re "B")) (re.union (str.to_re "CCC") (str.to_re "DD"))) (re.++ (re.* (re.union (str.to_re "E") (str.to_re "F"))) (re.++ (re.* (re.union (str.to_re "GG") (str.to_re "H"))) (re.++ (re.union (re.+ (str.to_re "I")) (re.+ (str.to_re "J"))) (re.++ (re.union (re.+ (str.to_re "KKK")) (re.+ (str.to_re "LLL"))) (re.++ (re.* (re.+ (str.to_re "M"))) (re.++ (re.+ (re.+ (str.to_re "NN"))) (re.++ (re.+ (re.* (str.to_re "OOO"))) (re.++ (re.* (re.* (str.to_re "PPP"))) (re.++ (re.+ (re.union (str.to_re "Q") (str.to_re "R"))) (re.++ (re.* (re.union (str.to_re "SS") (str.to_re "T"))) (re.++ (re.+ (re.* (str.to_re "UUU"))) (re.++ (re.* (re.* (str.to_re "VV"))) (re.++ (re.+ (re.* (str.to_re "WWW"))) (re.++ (re.union (re.+ (str.to_re "X")) (re.+ (str.to_re "Y"))) (re.++ (re.union (re.* (str.to_re "Z")) (re.* (str.to_re "!!"))) (re.++ (re.union (re.* (str.to_re """")) (re.* (str.to_re "###"))) (re.++ (re.* (re.union (str.to_re "$$$") (str.to_re "%"))) (re.++ (re.* (re.+ (str.to_re "&"))) (re.++ (re.union (re.union (str.to_re "'") (str.to_re "(")) (re.union (str.to_re ")") (str.to_re "**"))) (re.++ (re.union (re.* (str.to_re "+++")) (re.* (str.to_re ",,"))) (re.++ (re.union (re.* (str.to_re "-")) (re.* (str.to_re ".."))) (re.++ (re.* (re.* (str.to_re "//"))) (re.++ (re.+ (re.union (str.to_re ":::") (str.to_re ";;"))) (re.++ (re.union (re.+ (str.to_re "<<")) (re.+ (str.to_re "="))) (re.++ (re.+ (re.union (str.to_re ">>>") (str.to_re "?"))) (re.++ (re.+ (re.union (str.to_re "@@@") (str.to_re "["))) (re.++ (re.+ (re.+ (str.to_re "\\\\\\"))) (re.++ (re.* (re.* (str.to_re "]"))) (re.++ (re.union (re.* (str.to_re "^^^")) (re.* (str.to_re "_"))) (re.++ (re.* (re.union (str.to_re "```") (str.to_re "{{"))) (re.++ (re.union (re.union (str.to_re "|") (str.to_re "}}")) (re.union (str.to_re "~~~") (str.to_re "00"))) (re.++ (re.* (re.* (str.to_re "111"))) (re.++ (re.union (re.union (str.to_re "22") (str.to_re "333")) (re.union (str.to_re "4") (str.to_re "555"))) (re.++ (re.* (re.* (str.to_re "6"))) (re.++ (re.+ (re.+ (str.to_re "777"))) (re.++ (re.union (re.+ (str.to_re "8")) (re.+ (str.to_re "999"))) (re.++ (re.* (re.union (str.to_re "aa") (str.to_re "b"))) (re.++ (re.+ (re.* (str.to_re "ccc"))) (re.++ (re.union (re.union (str.to_re "ddd") (str.to_re "eee")) (re.union (str.to_re "f") (str.to_re "ggg"))) (re.++ (re.union (re.+ (str.to_re "hh")) (re.+ (str.to_re "i"))) (re.++ (re.+ (re.union (str.to_re "jj") (str.to_re "k"))) (re.++ (re.* (re.+ (str.to_re "ll"))) (re.++ (re.union (re.union (str.to_re "mmm") (str.to_re "n")) (re.union (str.to_re "oo") (str.to_re "pp"))) (re.++ (re.+ (re.union (str.to_re "qq") (str.to_re "rr"))) (re.++ (re.* (re.+ (str.to_re "ss"))) (re.++ (re.+ (re.+ (str.to_re "ttt"))) (re.++ (re.* (re.* (str.to_re "u"))) (re.++ (re.union (re.union (str.to_re "vv") (str.to_re "w")) (re.union (str.to_re "xxx") (str.to_re "yy"))) (re.++ (re.+ (re.+ (str.to_re "z"))) (re.++ (re.+ (re.+ (str.to_re "A"))) (re.++ (re.union (re.* (str.to_re "B")) (re.* (str.to_re "CC"))) (re.++ (re.union (re.union (str.to_re "DDD") (str.to_re "EEE")) (re.union (str.to_re "FFF") (str.to_re "G"))) (re.++ (re.* (re.* (str.to_re "HH"))) (re.++ (re.* (re.+ (str.to_re "III"))) (re.++ (re.+ (re.* (str.to_re "JJ"))) (re.++ (re.* (re.* (str.to_re "K"))) (re.++ (re.* (re.+ (str.to_re "L"))) (re.++ (re.union (re.* (str.to_re "MMM")) (re.* (str.to_re "NN"))) (re.++ (re.* (re.* (str.to_re "OOO"))) (re.++ (re.+ (re.* (str.to_re "P"))) (re.++ (re.union (re.union (str.to_re "Q") (str.to_re "RRR")) (re.union (str.to_re "S") (str.to_re "TTT"))) (re.++ (re.union (re.+ (str.to_re "U")) (re.+ (str.to_re "VV"))) (re.++ (re.+ (re.+ (str.to_re "WW"))) (re.++ (re.+ (re.union (str.to_re "XXX") (str.to_re "Y"))) (re.++ (re.+ (re.+ (str.to_re "ZZ"))) (re.++ (re.* (re.* (str.to_re "!!"))) (re.++ (re.* (re.+ (str.to_re """"""""))) (re.++ (re.union (re.union (str.to_re "###") (str.to_re "$$$")) (re.union (str.to_re "%") (str.to_re "&&&"))) (re.++ (re.* (re.* (str.to_re "'"))) (re.union (re.+ (str.to_re "((")) (re.+ (str.to_re ")))")))))))))))))))))))))))))))))))))))))))))))))))))))))))))))))))))))))))))))))))))))))))))))))))
(assert (not (str.in_re var0 (re.++ (re.* (re.union (str.to_re "00") (str.to_re "1"))) (re.++ (re.+ (re.* (str.to_re "2"))) (re.++ (re.+ (re.union (str.to_re "333") (str.to_re "4"))) (re.++ (re.* (re.+ (str.to_re "555"))) (re.++ (re.union (re.+ (str.to_re "666")) (re.+ (str.to_re "77"))) (re.++ (re.union (re.+ (str.to_re "88")) (re.+ (str.to_re "999"))) (re.++ (re.union (re.* (str.to_re "a")) (re.* (str.to_re "b"))) (re.++ (re.+ (re.+ (str.to_re "ccc"))) (re.++ (re.+ (re.+ (str.to_re "dd"))) (re.++ (re.* (re.* (str.to_re "ee"))) (re.++ (re.union (re.union (str.to_re "fff") (str.to_re "gg")) (re.union (str.to_re "hh") (str.to_re "i"))) (re.++ (re.* (re.* (str.to_re "jjj"))) (re.++ (re.* (re.union (str.to_re "kk") (str.to_re "l"))) (re.++ (re.+ (re.union (str.to_re "mm") (str.to_re "n"))) (re.++ (re.+ (re.* (str.to_re "oo"))) (re.++ (re.union (re.union (str.to_re "p") (str.to_re "qqq")) (re.union (str.to_re "r") (str.to_re "sss"))) (re.++ (re.+ (re.+ (str.to_re "tt"))) (re.++ (re.* (re.+ (str.to_re "uu"))) (re.++ (re.* (re.union (str.to_re "vvv") (str.to_re "www"))) (re.++ (re.* (re.union (str.to_re "x") (str.to_re "y"))) (re.++ (re.+ (re.* (str.to_re "zzz"))) (re.++ (re.* (re.* (str.to_re "AAA"))) (re.++ (re.union (re.* (str.to_re "BBB")) (re.* (str.to_re "C"))) (re.++ (re.union (re.union (str.to_re "DD") (str.to_re "EE")) (re.union (str.to_re "FFF") (str.to_re "G"))) (re.++ (re.union (re.* (str.to_re "HH")) (re.* (str.to_re "III"))) (re.++ (re.* (re.+ (str.to_re "JJ"))) (re.++ (re.+ (re.union (str.to_re "KKK") (str.to_re "LLL"))) (re.++ (re.* (re.union (str.to_re "MM") (str.to_re "NN"))) (re.++ (re.* (re.union (str.to_re "O") (str.to_re "PPP"))) (re.++ (re.union (re.union (str.to_re "QQQ") (str.to_re "R")) (re.union (str.to_re "SS") (str.to_re "TTT"))) (re.++ (re.union (re.+ (str.to_re "U")) (re.+ (str.to_re "V"))) (re.++ (re.union (re.* (str.to_re "W")) (re.* (str.to_re "XX"))) (re.++ (re.+ (re.* (str.to_re "YY"))) (re.++ (re.+ (re.+ (str.to_re "ZZZ"))) (re.++ (re.* (re.union (str.to_re "!") (str.to_re """"))) (re.++ (re.union (re.* (str.to_re "##")) (re.* (str.to_re "$$$"))) (re.++ (re.+ (re.* (str.to_re "%%%"))) (re.++ (re.+ (re.union (str.to_re "&&") (str.to_re "''"))) (re.++ (re.+ (re.* (str.to_re "("))) (re.++ (re.union (re.* (str.to_re ")))")) (re.* (str.to_re "**"))) (re.++ (re.union (re.union (str.to_re "++") (str.to_re ",,")) (re.union (str.to_re "---") (str.to_re ".."))) (re.++ (re.* (re.* (str.to_re "//"))) (re.++ (re.+ (re.+ (str.to_re ":::"))) (re.++ (re.union (re.+ (str.to_re ";;")) (re.+ (str.to_re "<"))) (re.++ (re.union (re.+ (str.to_re "==")) (re.+ (str.to_re ">>>"))) (re.++ (re.+ (re.union (str.to_re "??") (str.to_re "@@@"))) (re.++ (re.* (re.union (str.to_re "[[") (str.to_re "\\\\\\"))) (re.++ (re.union (re.union (str.to_re "]]") (str.to_re "^^^")) (re.union (str.to_re "___") (str.to_re "```"))) (re.++ (re.+ (re.union (str.to_re "{{") (str.to_re "||"))) (re.++ (re.* (re.union (str.to_re "}}}") (str.to_re "~~"))) (re.++ (re.* (re.union (str.to_re "0") (str.to_re "111"))) (re.++ (re.* (re.union (str.to_re "22") (str.to_re "333"))) (re.++ (re.* (re.* (str.to_re "44"))) (re.++ (re.union (re.* (str.to_re "5")) (re.* (str.to_re "66"))) (re.++ (re.union (re.union (str.to_re "7") (str.to_re "888")) (re.union (str.to_re "999") (str.to_re "a"))) (re.++ (re.union (re.union (str.to_re "bb") (str.to_re "ccc")) (re.union (str.to_re "d") (str.to_re "e"))) (re.++ (re.+ (re.union (str.to_re "fff") (str.to_re "gg"))) (re.++ (re.union (re.+ (str.to_re "hhh")) (re.+ (str.to_re "i"))) (re.++ (re.+ (re.+ (str.to_re "jj"))) (re.++ (re.+ (re.+ (str.to_re "kkk"))) (re.++ (re.+ (re.* (str.to_re "l"))) (re.++ (re.+ (re.+ (str.to_re "mmm"))) (re.++ (re.union (re.* (str.to_re "n")) (re.* (str.to_re "oo"))) (re.++ (re.* (re.union (str.to_re "ppp") (str.to_re "qq"))) (re.++ (re.* (re.* (str.to_re "rrr"))) (re.++ (re.union (re.* (str.to_re "ss")) (re.* (str.to_re "tt"))) (re.++ (re.union (re.* (str.to_re "uu")) (re.* (str.to_re "vv"))) (re.++ (re.union (re.* (str.to_re "ww")) (re.* (str.to_re "xxx"))) (re.++ (re.* (re.union (str.to_re "yy") (str.to_re "zzz"))) (re.++ (re.+ (re.* (str.to_re "AA"))) (re.++ (re.+ (re.union (str.to_re "B") (str.to_re "C"))) (re.++ (re.* (re.* (str.to_re "DDD"))) (re.++ (re.union (re.union (str.to_re "E") (str.to_re "FF")) (re.union (str.to_re "GG") (str.to_re "HHH"))) (re.++ (re.union (re.* (str.to_re "III")) (re.* (str.to_re "JJ"))) (re.++ (re.union (re.* (str.to_re "KK")) (re.* (str.to_re "LL"))) (re.++ (re.union (re.+ (str.to_re "M")) (re.+ (str.to_re "N"))) (re.++ (re.union (re.* (str.to_re "OOO")) (re.* (str.to_re "P"))) (re.++ (re.union (re.union (str.to_re "QQ") (str.to_re "RRR")) (re.union (str.to_re "S") (str.to_re "T"))) (re.++ (re.union (re.* (str.to_re "UU")) (re.* (str.to_re "VVV"))) (re.++ (re.union (re.+ (str.to_re "W")) (re.+ (str.to_re "XX"))) (re.++ (re.* (re.+ (str.to_re "YY"))) (re.++ (re.* (re.union (str.to_re "ZZ") (str.to_re "!!!"))) (re.++ (re.* (re.* (str.to_re """"))) (re.++ (re.* (re.union (str.to_re "##") (str.to_re "$$$"))) (re.++ (re.union (re.union (str.to_re "%") (str.to_re "&&&")) (re.union (str.to_re "'") (str.to_re "("))) (re.++ (re.+ (re.union (str.to_re ")") (str.to_re "**"))) (re.++ (re.union (re.+ (str.to_re "++")) (re.+ (str.to_re ",,,"))) (re.++ (re.union (re.* (str.to_re "--")) (re.* (str.to_re "."))) (re.++ (re.* (re.+ (str.to_re "///"))) (re.++ (re.* (re.* (str.to_re ":::"))) (re.union (re.+ (str.to_re ";;;")) (re.+ (str.to_re "<"))))))))))))))))))))))))))))))))))))))))))))))))))))))))))))))))))))))))))))))))))))))))))))))))
(check-sat)